#Fe in FCC structure

 iomode 3
 prtkbff 1
 ndtset  2


# Common variables
####################
# system
 acell   3*5.42
 natom   1
 fband1  8
 ntypat  1
 typat   1
 znucl   26.0
 rprim   -0.5  0.5  0.5
          0.5 -0.5  0.5
          0.5  0.5 -0.5
 xred    0.0  0.0  0.0
 occopt  7
 tsmear  0.005

# convergence parameters
 ecut       50
 toldfe1  1.0d-10
 nstep   100

# kpts
 kptopt1     4
 ngkpt1      8  8  8
 nshiftk1    1
 shiftk1     0.5  0.5  0.5

# Magnetism and so
 nspinor    1
 nsppol     2
 nspden     2
 spinat     0.0  0.0  5.0 
 so_psp     0


# other
 ixc     1    # xc approximation (should be consistent with psp)
 enunit  1    # in which format eigenvalues are printed 0 (Ha), 1 (eV), 2 (both)

 nsym2       0
 symmorphi2  0

#WFK GENERATION
#===============

# 2 Regular grid
 kptopt2     4
 ngkpt2      8  8  8
 nshiftk2    1
 shiftk2     0.5  0.5  0.5

 iscf2        -2               # Non self-consistent calculation
 getden2       1               # Read previous density file
 tolwfr2       1.0d-16         # Still get it converged
 nstep2      300
 nband2      22
 nbandkss2   20
 kssform2     3
 nbdbuf2     10
