&control 
    calculation='scf',
    prefix='hBN_2D',
    pseudo_dir = './Pseudos'
    verbosity = 'high' 
    wf_collect=.true.
/
&system
    ibrav = 4,
    celldm(1) = 4.716
    celldm(3) = 7.
    nat= 2,
    ntyp= 2,
    force_symmorphic=.true.
    ecutwfc = 40,
/
&electrons
 electron_maxstep = 100
 conv_thr =  1.0e-8
/
ATOMIC_SPECIES
 B 10 B.pz-vbc.UPF
 N 14 N.pz-vbc.UPF 
ATOMIC_POSITIONS {crystal}
B  0.6666667  0.3333333  0.0000000  
N -0.6666667 -0.3333333  0.0000000 
K_POINTS {automatic}
6 6 1 1 1 1 
