&CONTROL
    calculation = 'nscf', 
    restart_mode='from_scratch',
    prefix='pir',
    outdir= '.',
    pseudo_dir= '.',
    wf_collect = .true.
 /
 &SYSTEM
                   ibrav = 1,
                   celldm(1) = 35.0,
                         nat = 5,
                        ntyp = 2,
                     ecutwfc = 25,
                       nspin = 1
                       nosym = .true. ,
                        nbnd = 40,
			force_symmorphic=.true.
 /
 &ELECTRONS
          diago_thr_init = 1.d-5
 /
ATOMIC_SPECIES
    Si   28.08  Si.pz-vbc.UPF
    H    1.008  H.pz-vbc.UPF
ATOMIC_POSITIONS (angstrom)
Si      0.000000000     0.000000000     0.0000000000
H       0.000000000     1.489000000     0.0000000000
H       0.000000000     -0.496363243    -1.403832088
H       -1.21575425     -0.496363243    0.701916043
H       1.21575425      -0.496363243    0.701916043
K_POINTS crystal
    1
    0.00000     0.00000     0.00000     1.0000000
