&CONTROL
    calculation = 'scf', 
    restart_mode='from_scratch',
    prefix='pir',
    outdir= '.',
    pseudo_dir= '.',
    wf_collect = .true.
 /
 &SYSTEM
                   ibrav = 0,
                   celldm(1) = 35.0,
                         nat = 5,
                        ntyp = 2,
                     ecutwfc = 25,
                       nspin = 1
                      occupations='fixed'
                       nosym = .true. ,
                      nbnd = 40,
                      
 /
 &ELECTRONS
          electron_maxstep = 50,
          mixing_mode = 'plain',
          mixing_beta = 0.3,
          conv_thr = 1.d-6
 /
ATOMIC_SPECIES
    Si   28.08  Si.pz-vbc.UPF
    H    1.008  H.pz-vbc.UPF
ATOMIC_POSITIONS (angstrom)
Si      0.000000000     0.000000000     0.0000000000
H       0.000000000     1.489000000     0.0000000000
H       0.000000000     -0.496363243    -1.403832088
H       -1.21575425     -0.496363243    0.701916043
H       1.21575425      -0.496363243    0.701916043
CELL_PARAMETERS cubic
     1.000000000    0.000000000    0.000000000
     0.000000000    1.000000000    0.000000000
     0.000000000    0.000000000    1.000000000
K_POINTS crystal
    1
    0.00000     0.00000     0.00000     1.0000000
