&control
    calculation='bands',
    prefix='hbn',
    outdir='./tmp_b'
    pseudo_dir = './Pseudos'
    wf_collect=.true.
    verbosity = 'high'
/
&system
    ibrav = 4,
    celldm(1) = 4.716
    celldm(3) = 2.582
    nat= 4,
    ntyp= 2,
    force_symmorphic=.true.
    ecutwfc = 40,nbnd = 20
/
&electrons
 electron_maxstep = 100
 conv_thr =  1.0e-8
/
ATOMIC_SPECIES
 B 10 B.pz-vbc.UPF
 N 14 N.pz-vbc.UPF
ATOMIC_POSITIONS {crystal}
B  0.6666667  0.3333333  0.0000000
N -0.6666667 -0.3333333  0.0000000
B -0.6666667 -0.3333333  0.5000000
N  0.6666667  0.3333333  0.5000000  
K_POINTS {crystal_b}
7
0.333 -0.66667 0.0 15
0.000 0.000 0.000 15
0.5 -0.5 0.0 15
0.333 -0.66667 0.0 5
0.333 -0.66667 0.5 15
0.0 .0 0.5 15
0.5 -0.5 0.5 15  !K Γ M K H A L
