 &control
    calculation = 'nscf'
    prefix='AlAs',
    pseudo_dir = './',
    outdir='./'
    wf_collect=.true.
 /
 &system    
    ibrav=  2 
    celldm(1) = 10.6959 
    nat=  2 
    ntyp= 2
    ecutwfc = 40.0 
    nbnd = 15
    force_symmorphic=.true.
 /
 &electrons
    diago_thr_init =  1.0d-6
 /
ATOMIC_SPECIES 
 Al 1.0 Al.pz-vbc.UPF
 As 1.0 As.pz-bhs.UPF  
ATOMIC_POSITIONS crystal 
Al  0.0  0.0  0.0
As  0.25 0.25 0.25
K_POINTS automatic
8 8 8 0 0 0
