
ndtset 2   jdtset  1 2
#Run 1 Groundstate calculation
 nstep1      1000
 toldfe1    1.0d-12
 nband1     4
 iscf1      3
 prtden1    1

#Definition of th k point grid
acell  25 25 25
ecut 14
natom 2
ntypat 1
typat  1 1
znucl 1 1

xcart    11.5  12.5  12.5000
         13.5  12.5  12.5000

#Run 2  wf
 iscf2     -2
 getden2   1
 getwfk2   1
 nband2    250
 nstep2     3000
 tolwfr2     1.0d-10
 occopt2 1
 kssform2 3
 nbandkss2 250
 symmorphi2 0
 istwfk2 1


