 &control
    calculation='scf',
    prefix='Si_e15.0_k4_nb10_qe4.0.5', 
    outdir='/home/dsangalli/Personal_files/Workshop/2012_Losanna_Cecam/trunk/GW_tutorial/Si/gs/pwscf/io_dir'
    pseudo_dir= '/home/dsangalli/Personal_files/Workshop/2012_Losanna_Cecam/trunk/GW_tutorial/Si/gs/pwscf/psps',
    wf_collect=.true.,
    verbosity ='high',
    tstress=.true.,
    tprnfor=.true.,
 /
 &system
    ibrav=2,
    celldm(1)=10.183,
    nat=2, 
    ntyp=1,
    ecutwfc=15.0,
    nbnd=10,    
 /
 &electrons
    diago_full_acc=.true.,
    conv_thr = 1.0d-8
 /
ATOMIC_SPECIES
 Si  28.086  Si.vbc.UPF
ATOMIC_POSITIONS
 Si 0.00 0.00 0.00
 Si 0.25 0.25 0.25
K_POINTS {automatic}
  4 4 4 1 1 1
