 &control
    title = 'GaSb bulk'
    calculation = 'nscf'
    verbosity='high',
    prefix='GaSb_bulk',
    pseudo_dir = './',
    etot_conv_thr=1.0e-4,
    forc_conv_thr=1.0e-3,
    disk_io='high',
    wf_collect=.true.
 /
 &system 
      noncolin = .true.,
      lspinorb = .true.,
      ibrav=2, 
      celldm(1)=11.388,
      nat=2, 
      ntyp=2,
      ecutwfc =18.0, 
      nbnd=160,
 /
 &electrons
   diago_thr_init=5.0e-6,
   diago_full_acc=.true.
   electron_maxstep = 100,
   diagonalization='cg'
   mixing_mode = 'plain'
   mixing_beta = 0.6
   conv_thr =  1.0d-8,
 /
ATOMIC_SPECIES
 Ga   69.72   Garel.TMSOFTER.UPF
 Sb  121.75   Sbrel.TMSOFTER.UPF
ATOMIC_POSITIONS
Ga      0.00 0.00 0.00
Sb      0.25 0.25 0.25
K_POINTS {automatic}
6 6 6 1 1 1
