&inputph
           verbosity = 'high'
              tr2_ph = 1e-12
              prefix = 'si'
            fildvscf = 'si-dvscf'
              fildyn = 'si.dyn'
     electron_phonon = 'dvscf',
               epsil = .true.
               trans = .true.
               ldisp = .false.
               qplot = .true.
/
8
       0.000000000  0.000000000  0.000000000 1
      -0.125000000 -0.125000000  0.125000000 1
       0.250000000  0.250000000 -0.250000000 1
      -0.250000000  0.000000000  0.000000000 1
      -0.375000000 -0.125000000  0.125000000 1
       0.000000000  0.250000000 -0.250000000 1
       0.500000000  0.000000000  0.000000000 1
       0.500000000 -0.250000000  0.000000000 1
