 &control
    calculation = 'scf',prefix='Al',
    pseudo_dir = '.',
    wf_collect=.true.
 /
 &system
    ibrav=  2, celldm(1) =7.50, nat=  1, ntyp= 1,ecutwfc = 16, nbnd = 20
    occupations='smearing', smearing='mp', degauss=0.00001,force_symmorphic=.true.
 /
 &electrons
  diago_full_acc=.true.,
  conv_thr = 1.0d-8
 /
ATOMIC_SPECIES
 Al  26.98  Al.vbc.UPF
ATOMIC_POSITIONS
 Al 0.00 0.00 0.00
K_POINTS {automatic}
  8 8 8 0 0 0
